Minimize
 obj: 0
Subject to

\true constraints
   67 X1
 +    97 X2
 +    93 X3
 +    96 X4
 +    70 X5
 +    99 X6
 +    81 X7
 +    93 X8
 +   100 X9
 +    86 X10
< 441.000000

\multiple objectives
 -  66 X1
 -    76 X2
 -    79 X3
 -    68 X4
 -    76 X5
 -    99 X6
 -    80 X7
 -    60 X8
 -    89 X9
 -    95 X10
< 1
 -  73 X1
 -    63 X2
 -    81 X3
 -    69 X4
 -    87 X5
 -    61 X6
 -    76 X7
 -    90 X8
 -    68 X9
 -    93 X10
< 2
 - 100 X1
 -    90 X2
 -    95 X3
 -    73 X4
 -    65 X5
 -    74 X6
 -    66 X7
 -    74 X8
 -    71 X9
 -    86 X10
< 3
 -  97 X1
 -    98 X2
 -    62 X3
 -    69 X4
 -    89 X5
 -    74 X6
 -    95 X7
 -    81 X8
 -    96 X9
 -    72 X10
< 4
 -  75 X1
 -    69 X2
 -    90 X3
 -    64 X4
 -    95 X5
 -   100 X6
 -    92 X7
 -    94 X8
 -    61 X9
 -    89 X10
< 5
 -  78 X1
 -    77 X2
 -    88 X3
 -    73 X4
 -    69 X5
 -    85 X6
 -   100 X7
 -    84 X8
 -    79 X9
 -    61 X10
< 6
 -  90 X1
 -    70 X2
 -    68 X3
 -    90 X4
 -    90 X5
 -    91 X6
 -    80 X7
 -    91 X8
 -    67 X9
 -    65 X10
< 7
 -  90 X1
 -    75 X2
 -    85 X3
 -    77 X4
 -    83 X5
 -    63 X6
 -    80 X7
 -    99 X8
 -    84 X9
 -    82 X10
< 8



BINARY
X1
X2
X3
X4
X5
X6
X7
X8
X9
X10
END
